c at-most-one of 4 pidgeon in 3 holes
c p1@1 1
c p2@1 2
c p3@1 3
c p4@1 4
c p1@2 5
c p2@2 6
c p3@2 7
c p4@2 8
c p1@3 9
c p2@3 10
c p3@3 11
c p4@3 12
p cnf 12 22
-1 -2 0
-1 -3 0
-1 -4 0
-2 -3 0
-2 -4 0
-3 -4 0
-5 -6 0
-5 -7 0
-5 -8 0
-6 -7 0
-6 -8 0
-7 -8 0
-9 -10 0
-9 -11 0
-9 -12 0
-10 -11 0
-10 -12 0
-11 -12 0
1 5 9 0
2 6 10 0
3 7 11 0
4 8 12 0
